(declare-const X String)
; dialupvpn\x5fpwd\s+HXDownloadupdailyinformation
(assert (not (str.in_re X (re.++ (str.to_re "dialupvpn_pwd") (re.+ (re.union (str.to_re " ") (str.to_re "\u{9}") (str.to_re "\u{a}") (str.to_re "\u{c}") (str.to_re "\u{d}"))) (str.to_re "HXDownloadupdailyinformation\u{a}")))))
(check-sat)
